data/OOEBPP/R1000/BPP_1000_50_0.1_0.7_8.txt.ins
1000
50 50
1 35 839
2 35 14
3 35 861
4 35 60
5 35 67
6 35 127
7 35 513
8 35 659
9 35 546
10 35 765
11 35 532
12 35 938
13 35 84
14 35 827
15 35 85
16 35 357
17 35 194
18 35 825
19 35 164
20 35 688
21 35 317
22 35 218
23 35 326
24 35 668
25 35 869
26 35 778
27 35 805
28 35 15
29 35 616
30 35 279
31 35 631
32 35 182
33 35 407
34 35 485
35 34 0
36 34 493
37 34 527
38 34 546
39 34 580
40 34 343
41 34 760
42 34 803
43 34 286
44 34 906
45 34 726
46 34 684
47 34 571
48 34 230
49 34 71
50 34 760
51 34 925
52 34 946
53 34 321
54 34 140
55 34 547
56 34 133
57 34 194
58 34 95
59 34 759
60 34 44
61 34 584
62 34 896
63 34 689
64 34 189
65 34 233
66 34 799
67 34 3
68 34 884
69 34 327
70 34 747
71 34 437
72 34 426
73 33 548
74 33 131
75 33 892
76 33 297
77 33 110
78 33 394
79 33 433
80 33 807
81 33 849
82 33 688
83 33 534
84 33 525
85 33 729
86 33 322
87 33 327
88 33 166
89 33 524
90 33 829
91 33 991
92 33 319
93 33 80
94 33 470
95 33 524
96 33 549
97 33 37
98 33 972
99 32 954
100 32 210
101 32 544
102 32 499
103 32 201
104 32 617
105 32 39
106 32 883
107 32 22
108 32 524
109 32 371
110 32 728
111 32 104
112 32 266
113 32 434
114 31 828
115 31 861
116 31 817
117 31 756
118 31 342
119 31 22
120 31 803
121 31 87
122 31 175
123 31 140
124 31 903
125 31 162
126 31 876
127 31 691
128 31 299
129 31 546
130 31 232
131 31 318
132 31 167
133 31 920
134 31 229
135 31 193
136 31 801
137 31 186
138 31 978
139 31 509
140 31 5
141 31 714
142 31 214
143 31 167
144 30 138
145 30 766
146 30 157
147 30 485
148 30 737
149 30 372
150 30 203
151 30 84
152 30 386
153 30 711
154 30 53
155 30 299
156 30 53
157 30 560
158 30 683
159 30 509
160 30 429
161 30 162
162 30 527
163 30 263
164 30 680
165 30 150
166 30 201
167 30 479
168 30 729
169 30 780
170 29 325
171 29 167
172 29 237
173 29 156
174 29 990
175 29 393
176 29 703
177 29 320
178 29 725
179 29 126
180 29 842
181 29 961
182 29 718
183 29 948
184 29 131
185 29 892
186 29 392
187 29 818
188 29 60
189 29 421
190 29 339
191 29 469
192 29 819
193 29 71
194 29 463
195 29 864
196 29 388
197 29 166
198 29 154
199 29 974
200 28 999
201 28 611
202 28 374
203 28 372
204 28 45
205 28 706
206 28 746
207 28 654
208 28 711
209 28 704
210 28 970
211 28 639
212 28 73
213 28 832
214 28 547
215 28 97
216 28 568
217 28 323
218 28 723
219 28 68
220 28 444
221 28 993
222 28 288
223 28 174
224 28 753
225 28 214
226 28 155
227 28 422
228 27 115
229 27 672
230 27 461
231 27 606
232 27 142
233 27 430
234 27 55
235 27 888
236 27 579
237 27 170
238 27 240
239 27 863
240 27 501
241 27 313
242 27 718
243 27 185
244 27 803
245 27 672
246 27 553
247 27 16
248 27 612
249 27 657
250 27 764
251 27 437
252 27 364
253 27 588
254 27 153
255 27 275
256 27 418
257 27 171
258 27 248
259 27 838
260 27 609
261 27 766
262 26 642
263 26 722
264 26 655
265 26 441
266 26 376
267 26 798
268 26 977
269 26 887
270 26 331
271 26 902
272 26 10
273 26 324
274 26 529
275 26 547
276 26 59
277 26 156
278 26 564
279 26 893
280 26 398
281 26 250
282 26 912
283 26 961
284 26 708
285 26 522
286 26 703
287 26 508
288 26 631
289 26 501
290 26 989
291 26 479
292 26 765
293 26 73
294 26 821
295 26 148
296 26 894
297 26 554
298 26 902
299 25 964
300 25 119
301 25 635
302 25 20
303 25 283
304 25 630
305 25 474
306 25 808
307 25 831
308 25 599
309 25 546
310 25 983
311 25 488
312 25 614
313 25 775
314 25 638
315 25 918
316 25 244
317 25 484
318 25 113
319 25 677
320 25 111
321 25 342
322 25 736
323 25 289
324 25 538
325 25 632
326 25 137
327 25 739
328 25 762
329 25 356
330 25 427
331 25 320
332 25 797
333 24 360
334 24 470
335 24 314
336 24 367
337 24 605
338 24 211
339 24 773
340 24 395
341 24 915
342 24 395
343 24 149
344 24 306
345 24 336
346 24 787
347 24 508
348 24 493
349 24 516
350 24 926
351 24 932
352 24 633
353 24 630
354 24 551
355 24 492
356 24 443
357 24 319
358 24 524
359 24 540
360 24 424
361 24 77
362 23 275
363 23 472
364 23 720
365 23 53
366 23 858
367 23 566
368 23 993
369 23 156
370 23 326
371 23 41
372 23 272
373 23 889
374 23 771
375 23 797
376 23 123
377 23 376
378 23 491
379 23 732
380 23 588
381 23 800
382 23 365
383 23 827
384 23 144
385 23 490
386 23 685
387 23 199
388 23 667
389 23 810
390 23 474
391 23 36
392 23 250
393 23 667
394 23 881
395 23 12
396 23 875
397 22 606
398 22 708
399 22 272
400 22 444
401 22 198
402 22 917
403 22 217
404 22 5
405 22 564
406 22 157
407 22 940
408 22 955
409 22 913
410 22 555
411 22 67
412 22 508
413 22 261
414 22 813
415 22 859
416 22 401
417 22 473
418 22 552
419 22 861
420 22 805
421 22 426
422 22 931
423 22 447
424 22 616
425 22 310
426 22 3
427 22 380
428 22 610
429 22 523
430 22 60
431 22 102
432 22 316
433 22 699
434 22 748
435 22 269
436 22 588
437 21 994
438 21 72
439 21 784
440 21 559
441 21 501
442 21 823
443 21 350
444 21 61
445 21 200
446 21 489
447 21 784
448 21 28
449 21 43
450 21 33
451 21 364
452 21 93
453 21 757
454 21 784
455 21 792
456 21 50
457 21 426
458 21 257
459 21 422
460 21 588
461 21 74
462 21 924
463 21 663
464 21 738
465 21 147
466 21 559
467 21 814
468 20 445
469 20 264
470 20 170
471 20 972
472 20 21
473 20 124
474 20 651
475 20 307
476 20 370
477 20 104
478 20 450
479 20 796
480 20 590
481 20 807
482 20 169
483 20 33
484 20 353
485 20 226
486 20 953
487 20 181
488 20 856
489 20 579
490 20 518
491 20 106
492 20 568
493 20 126
494 20 176
495 20 773
496 20 262
497 20 484
498 20 127
499 20 61
500 20 991
501 20 406
502 20 777
503 20 881
504 19 975
505 19 424
506 19 538
507 19 335
508 19 215
509 19 206
510 19 867
511 19 10
512 19 206
513 19 762
514 19 946
515 19 727
516 19 340
517 19 519
518 19 832
519 19 992
520 19 514
521 19 608
522 19 102
523 19 895
524 19 557
525 19 136
526 19 712
527 19 916
528 19 727
529 19 444
530 19 770
531 19 799
532 19 870
533 19 413
534 18 448
535 18 219
536 18 125
537 18 813
538 18 594
539 18 209
540 18 973
541 18 820
542 18 954
543 18 648
544 18 427
545 18 15
546 18 103
547 18 906
548 18 711
549 18 760
550 18 406
551 18 653
552 18 694
553 18 118
554 18 851
555 18 17
556 18 787
557 18 836
558 18 37
559 18 765
560 18 37
561 18 510
562 18 347
563 18 231
564 18 526
565 18 33
566 18 219
567 18 377
568 18 49
569 18 587
570 18 888
571 18 375
572 18 257
573 17 950
574 17 385
575 17 791
576 17 252
577 17 799
578 17 255
579 17 665
580 17 235
581 17 125
582 17 906
583 17 600
584 17 760
585 17 777
586 17 339
587 17 961
588 17 769
589 17 773
590 17 482
591 17 157
592 17 341
593 17 849
594 17 580
595 17 630
596 17 577
597 17 249
598 17 469
599 17 252
600 17 924
601 17 851
602 17 960
603 17 960
604 16 960
605 16 141
606 16 817
607 16 137
608 16 645
609 16 625
610 16 851
611 16 650
612 16 652
613 16 502
614 16 250
615 16 717
616 16 405
617 16 12
618 16 190
619 16 578
620 16 126
621 16 211
622 16 682
623 16 279
624 16 483
625 16 945
626 16 799
627 16 350
628 16 215
629 16 79
630 16 658
631 16 284
632 16 600
633 16 656
634 16 577
635 16 238
636 16 742
637 16 12
638 16 173
639 16 926
640 16 331
641 16 174
642 15 981
643 15 650
644 15 338
645 15 303
646 15 415
647 15 880
648 15 990
649 15 726
650 15 533
651 15 718
652 15 307
653 15 52
654 15 981
655 15 449
656 15 594
657 15 468
658 15 271
659 15 736
660 15 659
661 15 536
662 15 180
663 15 799
664 15 249
665 15 289
666 15 237
667 15 181
668 15 696
669 15 867
670 15 48
671 15 761
672 15 993
673 15 254
674 15 498
675 15 359
676 15 831
677 15 363
678 15 330
679 15 427
680 15 398
681 15 726
682 15 383
683 14 336
684 14 968
685 14 995
686 14 92
687 14 715
688 14 413
689 14 109
690 14 872
691 14 770
692 14 245
693 14 331
694 14 519
695 14 228
696 14 335
697 14 3
698 14 981
699 14 590
700 14 827
701 14 868
702 14 733
703 14 653
704 14 275
705 14 186
706 14 133
707 14 929
708 14 984
709 14 432
710 14 106
711 14 220
712 14 399
713 13 895
714 13 663
715 13 425
716 13 128
717 13 402
718 13 775
719 13 987
720 13 947
721 13 918
722 13 808
723 13 922
724 13 553
725 13 508
726 13 430
727 13 851
728 13 909
729 13 15
730 13 124
731 13 851
732 13 348
733 13 871
734 13 400
735 13 85
736 13 607
737 13 513
738 13 512
739 13 956
740 13 463
741 13 502
742 13 755
743 13 443
744 13 687
745 13 242
746 13 983
747 13 190
748 13 344
749 13 737
750 12 26
751 12 883
752 12 251
753 12 379
754 12 643
755 12 511
756 12 826
757 12 615
758 12 130
759 12 951
760 12 705
761 12 995
762 12 382
763 12 330
764 12 336
765 12 720
766 12 806
767 12 425
768 12 408
769 12 377
770 12 16
771 12 253
772 12 353
773 12 67
774 12 833
775 12 571
776 12 640
777 12 888
778 12 223
779 12 379
780 12 128
781 12 347
782 12 52
783 12 376
784 12 976
785 12 275
786 12 949
787 12 513
788 12 900
789 12 300
790 11 400
791 11 22
792 11 982
793 11 744
794 11 589
795 11 165
796 11 807
797 11 91
798 11 423
799 11 300
800 11 33
801 11 193
802 11 820
803 11 640
804 11 353
805 11 457
806 11 993
807 11 383
808 11 301
809 11 840
810 11 290
811 11 399
812 11 254
813 11 200
814 11 461
815 11 696
816 11 753
817 11 567
818 10 967
819 10 403
820 10 220
821 10 430
822 10 105
823 10 500
824 10 137
825 10 868
826 10 174
827 10 178
828 10 667
829 10 822
830 10 806
831 10 897
832 10 112
833 10 364
834 10 478
835 10 778
836 10 72
837 10 760
838 10 529
839 10 642
840 10 730
841 10 610
842 10 757
843 9 391
844 9 305
845 9 53
846 9 916
847 9 281
848 9 470
849 9 585
850 9 926
851 9 637
852 9 482
853 9 205
854 9 343
855 9 159
856 9 508
857 9 672
858 9 950
859 9 689
860 9 707
861 9 94
862 9 793
863 9 897
864 9 426
865 9 804
866 9 346
867 9 78
868 9 171
869 9 507
870 9 345
871 9 625
872 9 897
873 9 365
874 9 675
875 9 140
876 9 473
877 9 667
878 8 83
879 8 562
880 8 601
881 8 136
882 8 789
883 8 451
884 8 7
885 8 608
886 8 829
887 8 333
888 8 465
889 8 529
890 8 674
891 8 747
892 8 717
893 8 662
894 8 834
895 8 656
896 8 373
897 8 316
898 8 50
899 8 555
900 8 19
901 8 135
902 8 635
903 8 535
904 8 324
905 8 329
906 8 293
907 8 505
908 8 304
909 8 979
910 8 78
911 7 309
912 7 7
913 7 145
914 7 378
915 7 15
916 7 335
917 7 342
918 7 663
919 7 877
920 7 553
921 7 929
922 7 321
923 7 397
924 7 0
925 7 192
926 7 377
927 7 562
928 7 878
929 7 178
930 7 260
931 7 785
932 7 453
933 7 774
934 7 652
935 7 966
936 7 463
937 7 163
938 7 470
939 7 77
940 7 954
941 7 385
942 7 413
943 7 411
944 6 657
945 6 364
946 6 122
947 6 359
948 6 903
949 6 644
950 6 869
951 6 693
952 6 772
953 6 96
954 6 757
955 6 75
956 6 762
957 6 326
958 6 886
959 6 3
960 6 741
961 6 221
962 6 525
963 6 877
964 6 467
965 6 197
966 5 289
967 5 323
968 5 477
969 5 665
970 5 649
971 5 525
972 5 262
973 5 372
974 5 576
975 5 317
976 5 892
977 5 432
978 5 405
979 5 841
980 5 772
981 5 206
982 5 675
983 5 364
984 5 321
985 5 108
986 5 143
987 5 68
988 5 246
989 5 802
990 5 744
991 5 42
992 5 988
993 5 392
994 5 643
995 5 748
996 5 972
997 5 561
998 5 641
999 5 468
1000 5 927
