results/OOEBPP/BPP_1000_50_0.1_0.7_8.txt.ins.log
247,246.364,31.2697,OPT,12048,0,0,AI,0,0.0283401,3.68826,0.836924,29.7822,0,2,0,98,96
